sat
(:elim-unconstrained  3
 :max-memory          21.92
 :memory              18.43
 :num-allocs          5707285
 :rlimit-count        213141
 :sls-arith-steps     42987
 :sls-ddfw-flips      80343.00
 :sls-ddfw-reinits    4
 :sls-ddfw-shifts     29030.00
 :solve-eqs-elim-vars 151
 :solve-eqs-steps     2911
 :time                2.06
 :total-time          2.06)
